9
10
47
48
61
81
82
109
114
115
139
144
145
161
162
174
176
182
183
185
189
194
195
199
200
208
220
245
248
249
267
268
275
314
315
316
327
329
373
374
375
378
379
380
381
388
389
396
404
405
408
409
418
419
437
438
447
449
473
484
486
487
495
498
517
518
521
522
538
540
544
552
553
559
564
566
567
574
582
599
600
601
602
603
606
607
608
609
610
611
612
613
615
616
617
618
619
620
623
627
629
630
631
632
633
634
637
638
42563